% File represents an instance of a Composite Structure problem to be solved by a CP framework
% Created on 2025-03-26 10:41:21.336
T = 52;
n = 16;
m = 24;
edges = [(2, 1),
(6, 5),
(10, 9),
(14, 13),
(3, 2),
(7, 6),
(11, 10),
(15, 14),
(3, 4),
(8, 7),
(11, 12),
(15, 16),
(5, 1),
(9, 5),
(9, 13),
(6, 2),
(10, 6),
(14, 10),
(3, 7),
(11, 7),
(15, 11),
(8, 4),
(8, 12),
(16, 12)];
counts = [|14, 2, 14, 4,
|14, 2, 14, 10,
|14, 6, 14, 12,
|14, 4, 14, 12,
|14, 4, 14, 6,
|14, 4, 14, 10,
|14, 4, 14, 12,
|16, 4, 16, 12,
|16, 4, 16, 8,
|16, 4, 16, 10,
|16, 4, 16, 12,
|16, 2, 16, 8,
|16, 4, 16, 6,
|16, 4, 16, 12,
|16, 8, 16, 12,
|16, 2, 16, 12|];
